(declare-const x0 Real)
(assert (<= 0.0 x0))
(declare-const x1 Real)
(assert (<= 0.0 x1))
(declare-const x2 Real)
(assert (<= 0.0 x2))
(declare-const x3 Real)
(assert (<= 0.0 x3))
(declare-const x4 Real)
(assert (<= 0.0 x4))
(declare-const x5 Real)
(assert (<= 0.0 x5))

(assert (<= 32.970000 (+ (* 17.100000 x0) (* 204.200000 x1) (* 212.300000 x2) (* 623.400000 x3) (* 1495.500000 x4) (* 38.200000 x5) (- (+ (* (* 169.0 x0) x1) (* (* 3580.0 x1) x3) (* (* 3810.0 x2) x3) (* (* 18500.0 x2) x4) (* (* 24300.0 x3) x4))))))
(assert (<= 25.120000 (+ (* 17.900000 x0) (* 113.900000 x1) (* 169.700000 x2) (* 337.800000 x3) (* 1385.200000 x4) (* 36.800000 x5) (- (+ (* (* 139.0 x0) x1) (* (* 2450.0 x2) x3) (* (* 16600.0 x2) x4) (* (* 17200.0 x3) x4))))))
(assert (<= (- 29.080000) (+ (* (- 70.0) x2) (* (- 819.0) x3) (* (- 273.0) x5) (* (* 26000.0 x2) x3))))
(assert (<= (- 78.020000) (+ (* 159.900000 x0) (* 587.0 x2) (* 391.0 x3) (* 2198.0 x4) (* (- 311.0) x5) (- (* (* 14000.0 x0) x4)))))

(minimize
	(+ (* 4.300000 x0) (* 63.300000 x1) (* 15.800000 x2) (* 68.500000 x3) (* 4.700000 x4) (* 31.800000 x5))
)
(check-sat)
(get-objectives)
(exit)

